60
1 0 9
2 0 3
2 1 6
3 0 2
3 1 3
3 2 3
4 0 9
4 1 5
4 2 5
4 3 8
5 0 1
5 1 1
5 2 5
5 3 5
5 4 8
6 0 9
6 1 7
6 2 3
6 3 2
6 4 8
6 5 5
7 0 8
7 1 6
7 2 2
7 3 4
7 4 2
7 5 7
7 6 4
8 0 5
8 1 1
8 2 7
8 3 9
8 4 4
8 5 9
8 6 3
8 7 6
9 0 8
9 1 8
9 2 3
9 3 2
9 4 5
9 5 9
9 6 7
9 7 8
9 8 3
10 0 9
10 1 8
10 2 1
10 3 9
10 4 5
10 5 7
10 6 1
10 7 1
10 8 2
10 9 8
11 0 5
11 1 3
11 2 2
11 3 5
11 4 8
11 5 2
11 6 8
11 7 2
11 8 9
11 9 2
11 10 3
12 0 3
12 1 2
12 2 6
12 3 8
12 4 3
12 5 8
12 6 6
12 7 1
12 8 5
12 9 6
12 10 6
12 11 1
13 0 8
13 1 6
13 2 3
13 3 9
13 4 2
13 5 9
13 6 5
13 7 3
13 8 8
13 9 9
13 10 3
13 11 6
13 12 8
14 0 1
14 1 3
14 2 1
14 3 7
14 4 8
14 5 5
14 6 5
14 7 7
14 8 3
14 9 4
14 10 7
14 11 7
14 12 9
14 13 8
15 0 8
15 1 9
15 2 1
15 3 8
15 4 7
15 5 8
15 6 3
15 7 9
15 8 6
15 9 4
15 10 7
15 11 3
15 12 8
15 13 6
15 14 1
16 0 8
16 1 2
16 2 7
16 3 7
16 4 2
16 5 4
16 6 6
16 7 1
16 8 5
16 9 5
16 10 4
16 11 5
16 12 6
16 13 3
16 14 6
16 15 8
17 0 7
17 1 1
17 2 4
17 3 9
17 4 5
17 5 9
17 6 1
17 7 3
17 8 8
17 9 9
17 10 8
17 11 1
17 12 4
17 13 8
17 14 4
17 15 8
17 16 3
18 0 7
18 1 7
18 2 4
18 3 5
18 4 1
18 5 2
18 6 4
18 7 4
18 8 8
18 9 4
18 10 1
18 11 5
18 12 4
18 13 9
18 14 7
18 15 2
18 16 6
18 17 1
19 0 6
19 1 7
19 2 1
19 3 6
19 4 2
19 5 3
19 6 6
19 7 1
19 8 3
19 9 6
19 10 2
19 11 5
19 12 6
19 13 8
19 14 4
19 15 7
19 16 2
19 17 2
19 18 5
20 0 9
20 1 4
20 2 4
20 3 6
20 4 9
20 5 2
20 6 2
20 7 7
20 8 5
20 9 1
20 10 3
20 11 7
20 12 1
20 13 8
20 14 3
20 15 5
20 16 5
20 17 6
20 18 3
20 19 4
21 0 3
21 1 9
21 2 1
21 3 7
21 4 9
21 5 5
21 6 1
21 7 3
21 8 2
21 9 5
21 10 3
21 11 8
21 12 1
21 13 9
21 14 7
21 15 9
21 16 6
21 17 2
21 18 8
21 19 7
21 20 2
22 0 4
22 1 2
22 2 8
22 3 2
22 4 4
22 5 8
22 6 8
22 7 7
22 8 6
22 9 7
22 10 4
22 11 5
22 12 3
22 13 8
22 14 3
22 15 5
22 16 2
22 17 4
22 18 2
22 19 1
22 20 6
22 21 7
23 0 1
23 1 5
23 2 4
23 3 1
23 4 7
23 5 3
23 6 7
23 7 3
23 8 1
23 9 2
23 10 3
23 11 1
23 12 6
23 13 7
23 14 3
23 15 2
23 16 4
23 17 6
23 18 1
23 19 1
23 20 6
23 21 1
23 22 2
24 0 8
24 1 7
24 2 7
24 3 3
24 4 5
24 5 2
24 6 9
24 7 7
24 8 8
24 9 6
24 10 8
24 11 1
24 12 3
24 13 6
24 14 6
24 15 1
24 16 2
24 17 5
24 18 8
24 19 9
24 20 9
24 21 7
24 22 5
24 23 6
25 0 7
25 1 5
25 2 6
25 3 1
25 4 8
25 5 7
25 6 1
25 7 4
25 8 6
25 9 2
25 10 8
25 11 8
25 12 7
25 13 8
25 14 9
25 15 5
25 16 4
25 17 6
25 18 3
25 19 8
25 20 4
25 21 6
25 22 3
25 23 5
25 24 6
26 0 7
26 1 7
26 2 7
26 3 7
26 4 9
26 5 9
26 6 5
26 7 1
26 8 2
26 9 2
26 10 2
26 11 7
26 12 5
26 13 7
26 14 2
26 15 9
26 16 7
26 17 4
26 18 4
26 19 2
26 20 4
26 21 6
26 22 7
26 23 9
26 24 5
26 25 6
27 0 5
27 1 1
27 2 8
27 3 8
27 4 1
27 5 2
27 6 8
27 7 9
27 8 1
27 9 2
27 10 6
27 11 5
27 12 7
27 13 3
27 14 2
27 15 6
27 16 3
27 17 2
27 18 2
27 19 9
27 20 1
27 21 7
27 22 6
27 23 5
27 24 8
27 25 7
27 26 6
28 0 5
28 1 2
28 2 1
28 3 5
28 4 8
28 5 8
28 6 5
28 7 1
28 8 4
28 9 3
28 10 9
28 11 2
28 12 9
28 13 7
28 14 6
28 15 2
28 16 1
28 17 9
28 18 3
28 19 5
28 20 4
28 21 5
28 22 6
28 23 1
28 24 3
28 25 2
28 26 3
28 27 9
29 0 4
29 1 4
29 2 9
29 3 1
29 4 6
29 5 7
29 6 6
29 7 6
29 8 3
29 9 4
29 10 2
29 11 8
29 12 2
29 13 5
29 14 3
29 15 4
29 16 5
29 17 4
29 18 7
29 19 3
29 20 6
29 21 4
29 22 2
29 23 3
29 24 2
29 25 8
29 26 1
29 27 3
29 28 9
30 0 6
30 1 1
30 2 7
30 3 8
30 4 5
30 5 5
30 6 1
30 7 9
30 8 1
30 9 9
30 10 3
30 11 6
30 12 7
30 13 5
30 14 9
30 15 4
30 16 4
30 17 6
30 18 9
30 19 6
30 20 5
30 21 8
30 22 8
30 23 1
30 24 1
30 25 8
30 26 4
30 27 9
30 28 5
30 29 6
31 0 2
31 1 8
31 2 1
31 3 2
31 4 6
31 5 5
31 6 7
31 7 1
31 8 9
31 9 5
31 10 5
31 11 8
31 12 8
31 13 5
31 14 9
31 15 5
31 16 2
31 17 2
31 18 1
31 19 7
31 20 2
31 21 1
31 22 5
31 23 6
31 24 5
31 25 4
31 26 3
31 27 2
31 28 3
31 29 5
31 30 5
32 0 6
32 1 7
32 2 9
32 3 8
32 4 9
32 5 9
32 6 2
32 7 5
32 8 1
32 9 5
32 10 9
32 11 3
32 12 5
32 13 9
32 14 6
32 15 9
32 16 8
32 17 4
32 18 8
32 19 7
32 20 4
32 21 5
32 22 9
32 23 3
32 24 9
32 25 9
32 26 4
32 27 8
32 28 9
32 29 5
32 30 8
32 31 8
33 0 9
33 1 6
33 2 7
33 3 7
33 4 6
33 5 5
33 6 4
33 7 2
33 8 6
33 9 4
33 10 3
33 11 1
33 12 1
33 13 8
33 14 5
33 15 8
33 16 4
33 17 3
33 18 9
33 19 2
33 20 1
33 21 8
33 22 1
33 23 7
33 24 9
33 25 7
33 26 6
33 27 6
33 28 2
33 29 8
33 30 7
33 31 8
33 32 9
34 0 5
34 1 1
34 2 9
34 3 6
34 4 7
34 5 8
34 6 3
34 7 3
34 8 5
34 9 6
34 10 2
34 11 2
34 12 6
34 13 5
34 14 5
34 15 7
34 16 6
34 17 3
34 18 8
34 19 3
34 20 1
34 21 3
34 22 7
34 23 7
34 24 8
34 25 2
34 26 1
34 27 7
34 28 9
34 29 7
34 30 9
34 31 2
34 32 2
34 33 7
35 0 9
35 1 5
35 2 2
35 3 6
35 4 5
35 5 6
35 6 2
35 7 1
35 8 1
35 9 2
35 10 2
35 11 9
35 12 8
35 13 1
35 14 9
35 15 8
35 16 5
35 17 2
35 18 3
35 19 8
35 20 3
35 21 4
35 22 3
35 23 9
35 24 4
35 25 9
35 26 6
35 27 1
35 28 7
35 29 5
35 30 3
35 31 5
35 32 4
35 33 4
35 34 9
36 0 9
36 1 7
36 2 2
36 3 4
36 4 2
36 5 7
36 6 4
36 7 2
36 8 6
36 9 2
36 10 6
36 11 1
36 12 4
36 13 7
36 14 7
36 15 3
36 16 7
36 17 1
36 18 9
36 19 1
36 20 2
36 21 9
36 22 5
36 23 9
36 24 4
36 25 4
36 26 9
36 27 4
36 28 5
36 29 1
36 30 2
36 31 1
36 32 2
36 33 8
36 34 1
36 35 9
37 0 8
37 1 4
37 2 1
37 3 3
37 4 7
37 5 9
37 6 9
37 7 9
37 8 8
37 9 8
37 10 4
37 11 2
37 12 5
37 13 4
37 14 3
37 15 1
37 16 4
37 17 2
37 18 3
37 19 4
37 20 4
37 21 4
37 22 4
37 23 9
37 24 3
37 25 9
37 26 9
37 27 7
37 28 4
37 29 7
37 30 5
37 31 8
37 32 4
37 33 2
37 34 2
37 35 3
37 36 1
38 0 7
38 1 1
38 2 4
38 3 6
38 4 1
38 5 8
38 6 3
38 7 1
38 8 5
38 9 9
38 10 3
38 11 7
38 12 9
38 13 4
38 14 6
38 15 4
38 16 7
38 17 8
38 18 8
38 19 3
38 20 5
38 21 6
38 22 1
38 23 8
38 24 1
38 25 1
38 26 4
38 27 4
38 28 5
38 29 1
38 30 6
38 31 9
38 32 7
38 33 3
38 34 3
38 35 3
38 36 9
38 37 4
39 0 3
39 1 7
39 2 1
39 3 8
39 4 1
39 5 2
39 6 3
39 7 1
39 8 1
39 9 7
39 10 1
39 11 8
39 12 8
39 13 8
39 14 5
39 15 9
39 16 2
39 17 2
39 18 3
39 19 1
39 20 4
39 21 5
39 22 6
39 23 1
39 24 5
39 25 5
39 26 4
39 27 6
39 28 3
39 29 7
39 30 9
39 31 7
39 32 7
39 33 1
39 34 2
39 35 8
39 36 7
39 37 9
39 38 5
40 0 7
40 1 3
40 2 4
40 3 5
40 4 9
40 5 9
40 6 5
40 7 3
40 8 5
40 9 8
40 10 4
40 11 6
40 12 2
40 13 9
40 14 4
40 15 4
40 16 6
40 17 9
40 18 5
40 19 5
40 20 8
40 21 3
40 22 3
40 23 7
40 24 3
40 25 3
40 26 6
40 27 2
40 28 8
40 29 8
40 30 2
40 31 7
40 32 2
40 33 7
40 34 9
40 35 9
40 36 3
40 37 7
40 38 5
40 39 7
41 0 3
41 1 8
41 2 3
41 3 6
41 4 7
41 5 7
41 6 8
41 7 7
41 8 7
41 9 3
41 10 4
41 11 2
41 12 8
41 13 6
41 14 1
41 15 2
41 16 1
41 17 5
41 18 1
41 19 1
41 20 3
41 21 7
41 22 2
41 23 4
41 24 6
41 25 4
41 26 6
41 27 4
41 28 5
41 29 1
41 30 5
41 31 3
41 32 1
41 33 1
41 34 8
41 35 5
41 36 7
41 37 8
41 38 4
41 39 2
41 40 5
42 0 6
42 1 9
42 2 4
42 3 9
42 4 3
42 5 3
42 6 9
42 7 7
42 8 8
42 9 2
42 10 6
42 11 7
42 12 8
42 13 8
42 14 4
42 15 7
42 16 2
42 17 8
42 18 2
42 19 7
42 20 8
42 21 5
42 22 1
42 23 9
42 24 3
42 25 8
42 26 9
42 27 2
42 28 3
42 29 3
42 30 7
42 31 5
42 32 9
42 33 7
42 34 9
42 35 8
42 36 4
42 37 3
42 38 2
42 39 9
42 40 4
42 41 3
43 0 9
43 1 9
43 2 1
43 3 9
43 4 6
43 5 6
43 6 4
43 7 7
43 8 7
43 9 4
43 10 4
43 11 4
43 12 4
43 13 4
43 14 7
43 15 2
43 16 6
43 17 2
43 18 4
43 19 6
43 20 8
43 21 9
43 22 1
43 23 8
43 24 2
43 25 4
43 26 8
43 27 9
43 28 6
43 29 3
43 30 7
43 31 9
43 32 9
43 33 8
43 34 3
43 35 6
43 36 5
43 37 3
43 38 8
43 39 3
43 40 9
43 41 3
43 42 7
44 0 5
44 1 8
44 2 2
44 3 6
44 4 9
44 5 7
44 6 9
44 7 9
44 8 1
44 9 4
44 10 4
44 11 5
44 12 3
44 13 5
44 14 2
44 15 1
44 16 9
44 17 7
44 18 9
44 19 2
44 20 9
44 21 7
44 22 9
44 23 7
44 24 8
44 25 2
44 26 8
44 27 9
44 28 8
44 29 3
44 30 4
44 31 2
44 32 9
44 33 1
44 34 1
44 35 8
44 36 4
44 37 3
44 38 6
44 39 8
44 40 6
44 41 4
44 42 2
44 43 3
45 0 8
45 1 5
45 2 1
45 3 4
45 4 9
45 5 9
45 6 7
45 7 4
45 8 9
45 9 7
45 10 9
45 11 2
45 12 8
45 13 2
45 14 1
45 15 9
45 16 7
45 17 4
45 18 6
45 19 5
45 20 1
45 21 2
45 22 1
45 23 9
45 24 1
45 25 5
45 26 9
45 27 4
45 28 7
45 29 4
45 30 4
45 31 9
45 32 5
45 33 9
45 34 8
45 35 6
45 36 5
45 37 4
45 38 8
45 39 4
45 40 8
45 41 7
45 42 3
45 43 8
45 44 3
46 0 4
46 1 7
46 2 7
46 3 4
46 4 6
46 5 1
46 6 5
46 7 7
46 8 7
46 9 3
46 10 9
46 11 7
46 12 4
46 13 6
46 14 7
46 15 3
46 16 6
46 17 8
46 18 5
46 19 7
46 20 7
46 21 6
46 22 1
46 23 1
46 24 9
46 25 2
46 26 5
46 27 2
46 28 5
46 29 9
46 30 3
46 31 2
46 32 2
46 33 8
46 34 9
46 35 9
46 36 9
46 37 6
46 38 4
46 39 6
46 40 7
46 41 3
46 42 6
46 43 9
46 44 9
46 45 6
47 0 3
47 1 2
47 2 6
47 3 9
47 4 2
47 5 5
47 6 6
47 7 8
47 8 1
47 9 5
47 10 1
47 11 8
47 12 1
47 13 6
47 14 7
47 15 5
47 16 1
47 17 5
47 18 9
47 19 5
47 20 5
47 21 4
47 22 2
47 23 9
47 24 3
47 25 2
47 26 6
47 27 8
47 28 5
47 29 2
47 30 7
47 31 9
47 32 2
47 33 6
47 34 6
47 35 7
47 36 3
47 37 8
47 38 9
47 39 2
47 40 7
47 41 6
47 42 7
47 43 3
47 44 6
47 45 2
47 46 4
48 0 9
48 1 1
48 2 5
48 3 2
48 4 7
48 5 1
48 6 3
48 7 5
48 8 5
48 9 3
48 10 2
48 11 7
48 12 3
48 13 2
48 14 3
48 15 8
48 16 5
48 17 5
48 18 7
48 19 7
48 20 6
48 21 7
48 22 1
48 23 2
48 24 4
48 25 8
48 26 5
48 27 4
48 28 7
48 29 6
48 30 7
48 31 9
48 32 9
48 33 2
48 34 1
48 35 4
48 36 6
48 37 3
48 38 1
48 39 6
48 40 3
48 41 4
48 42 9
48 43 7
48 44 5
48 45 6
48 46 1
48 47 4
49 0 2
49 1 8
49 2 6
49 3 8
49 4 3
49 5 7
49 6 2
49 7 1
49 8 5
49 9 5
49 10 6
49 11 6
49 12 1
49 13 3
49 14 5
49 15 7
49 16 2
49 17 1
49 18 4
49 19 2
49 20 7
49 21 3
49 22 3
49 23 6
49 24 8
49 25 5
49 26 4
49 27 2
49 28 8
49 29 5
49 30 2
49 31 3
49 32 3
49 33 8
49 34 1
49 35 4
49 36 5
49 37 2
49 38 6
49 39 3
49 40 4
49 41 8
49 42 8
49 43 5
49 44 5
49 45 8
49 46 5
49 47 7
49 48 6
50 0 2
50 1 3
50 2 7
50 3 4
50 4 9
50 5 4
50 6 6
50 7 2
50 8 8
50 9 3
50 10 8
50 11 3
50 12 9
50 13 5
50 14 3
50 15 1
50 16 1
50 17 8
50 18 3
50 19 6
50 20 1
50 21 3
50 22 6
50 23 8
50 24 8
50 25 3
50 26 1
50 27 6
50 28 1
50 29 4
50 30 6
50 31 4
50 32 2
50 33 1
50 34 1
50 35 8
50 36 8
50 37 4
50 38 2
50 39 5
50 40 6
50 41 8
50 42 8
50 43 8
50 44 6
50 45 3
50 46 2
50 47 3
50 48 1
50 49 2
51 0 1
51 1 6
51 2 8
51 3 2
51 4 4
51 5 5
51 6 1
51 7 2
51 8 2
51 9 6
51 10 3
51 11 8
51 12 2
51 13 5
51 14 7
51 15 9
51 16 8
51 17 4
51 18 7
51 19 4
51 20 6
51 21 5
51 22 2
51 23 3
51 24 6
51 25 1
51 26 2
51 27 8
51 28 9
51 29 9
51 30 5
51 31 9
51 32 4
51 33 5
51 34 9
51 35 6
51 36 2
51 37 5
51 38 2
51 39 6
51 40 2
51 41 2
51 42 4
51 43 1
51 44 8
51 45 9
51 46 5
51 47 5
51 48 4
51 49 1
51 50 8
52 0 7
52 1 6
52 2 7
52 3 7
52 4 8
52 5 7
52 6 3
52 7 7
52 8 8
52 9 7
52 10 9
52 11 3
52 12 4
52 13 3
52 14 5
52 15 9
52 16 8
52 17 6
52 18 6
52 19 9
52 20 8
52 21 7
52 22 8
52 23 7
52 24 8
52 25 3
52 26 6
52 27 3
52 28 7
52 29 3
52 30 9
52 31 7
52 32 7
52 33 3
52 34 1
52 35 2
52 36 5
52 37 6
52 38 3
52 39 4
52 40 4
52 41 5
52 42 8
52 43 4
52 44 4
52 45 9
52 46 1
52 47 4
52 48 2
52 49 6
52 50 5
52 51 1
53 0 8
53 1 6
53 2 5
53 3 7
53 4 3
53 5 4
53 6 2
53 7 7
53 8 9
53 9 5
53 10 6
53 11 9
53 12 7
53 13 1
53 14 1
53 15 2
53 16 3
53 17 9
53 18 4
53 19 4
53 20 4
53 21 3
53 22 7
53 23 3
53 24 6
53 25 6
53 26 7
53 27 6
53 28 7
53 29 8
53 30 6
53 31 5
53 32 4
53 33 1
53 34 5
53 35 4
53 36 1
53 37 8
53 38 6
53 39 1
53 40 6
53 41 4
53 42 5
53 43 3
53 44 5
53 45 3
53 46 5
53 47 3
53 48 7
53 49 9
53 50 1
53 51 7
53 52 7
54 0 8
54 1 7
54 2 7
54 3 4
54 4 4
54 5 4
54 6 7
54 7 6
54 8 1
54 9 3
54 10 5
54 11 9
54 12 9
54 13 5
54 14 6
54 15 9
54 16 8
54 17 8
54 18 2
54 19 6
54 20 2
54 21 3
54 22 4
54 23 3
54 24 8
54 25 5
54 26 1
54 27 9
54 28 1
54 29 4
54 30 4
54 31 5
54 32 4
54 33 9
54 34 9
54 35 8
54 36 4
54 37 6
54 38 6
54 39 4
54 40 7
54 41 6
54 42 5
54 43 3
54 44 5
54 45 3
54 46 2
54 47 9
54 48 9
54 49 9
54 50 1
54 51 4
54 52 7
54 53 5
55 0 8
55 1 3
55 2 2
55 3 2
55 4 9
55 5 8
55 6 9
55 7 3
55 8 8
55 9 2
55 10 2
55 11 4
55 12 7
55 13 3
55 14 4
55 15 1
55 16 7
55 17 4
55 18 9
55 19 3
55 20 3
55 21 9
55 22 5
55 23 7
55 24 3
55 25 2
55 26 8
55 27 6
55 28 4
55 29 9
55 30 3
55 31 6
55 32 9
55 33 7
55 34 9
55 35 2
55 36 4
55 37 4
55 38 2
55 39 9
55 40 5
55 41 9
55 42 5
55 43 9
55 44 5
55 45 6
55 46 9
55 47 1
55 48 8
55 49 3
55 50 5
55 51 5
55 52 4
55 53 8
55 54 1
56 0 1
56 1 4
56 2 8
56 3 8
56 4 5
56 5 9
56 6 5
56 7 4
56 8 5
56 9 8
56 10 8
56 11 6
56 12 5
56 13 6
56 14 1
56 15 4
56 16 2
56 17 1
56 18 2
56 19 6
56 20 1
56 21 4
56 22 9
56 23 1
56 24 8
56 25 4
56 26 5
56 27 8
56 28 9
56 29 6
56 30 9
56 31 2
56 32 9
56 33 3
56 34 7
56 35 9
56 36 7
56 37 3
56 38 4
56 39 9
56 40 3
56 41 9
56 42 8
56 43 1
56 44 6
56 45 2
56 46 6
56 47 2
56 48 4
56 49 9
56 50 1
56 51 5
56 52 9
56 53 9
56 54 7
56 55 6
57 0 9
57 1 8
57 2 4
57 3 6
57 4 7
57 5 3
57 6 6
57 7 3
57 8 4
57 9 7
57 10 7
57 11 4
57 12 4
57 13 5
57 14 7
57 15 2
57 16 1
57 17 7
57 18 6
57 19 2
57 20 4
57 21 5
57 22 9
57 23 1
57 24 9
57 25 6
57 26 4
57 27 8
57 28 3
57 29 1
57 30 3
57 31 2
57 32 7
57 33 1
57 34 7
57 35 7
57 36 1
57 37 7
57 38 2
57 39 6
57 40 6
57 41 8
57 42 3
57 43 3
57 44 4
57 45 7
57 46 8
57 47 4
57 48 7
57 49 6
57 50 7
57 51 9
57 52 8
57 53 3
57 54 8
57 55 8
57 56 6
58 0 2
58 1 8
58 2 1
58 3 2
58 4 2
58 5 4
58 6 5
58 7 8
58 8 9
58 9 4
58 10 6
58 11 4
58 12 8
58 13 9
58 14 4
58 15 9
58 16 5
58 17 6
58 18 7
58 19 7
58 20 9
58 21 7
58 22 5
58 23 6
58 24 5
58 25 3
58 26 4
58 27 9
58 28 8
58 29 1
58 30 5
58 31 3
58 32 4
58 33 5
58 34 1
58 35 2
58 36 7
58 37 2
58 38 7
58 39 2
58 40 6
58 41 4
58 42 7
58 43 1
58 44 2
58 45 3
58 46 6
58 47 1
58 48 4
58 49 2
58 50 3
58 51 2
58 52 3
58 53 8
58 54 1
58 55 1
58 56 4
58 57 1
59 0 3
59 1 1
59 2 4
59 3 5
59 4 9
59 5 6
59 6 7
59 7 8
59 8 3
59 9 9
59 10 5
59 11 2
59 12 8
59 13 9
59 14 6
59 15 5
59 16 5
59 17 8
59 18 6
59 19 3
59 20 1
59 21 2
59 22 2
59 23 1
59 24 5
59 25 1
59 26 6
59 27 7
59 28 8
59 29 7
59 30 7
59 31 2
59 32 1
59 33 9
59 34 7
59 35 5
59 36 1
59 37 4
59 38 9
59 39 9
59 40 4
59 41 3
59 42 9
59 43 2
59 44 3
59 45 6
59 46 1
59 47 6
59 48 3
59 49 8
59 50 5
59 51 7
59 52 1
59 53 6
59 54 2
59 55 7
59 56 1
59 57 5
59 58 5
